networks/zoo_26_125/zoo_26_125-lower.sol
<?xml version = "1.0" encoding="UTF-8" standalone="yes"?>
<CPLEXSolution version="1.2">
 <header
   problemName="networks/zoo_26_125/zoo_26_125-lower.lp"
   solutionName="incumbent"
   solutionIndex="-1"
   objectiveValue="13"
   solutionTypeValue="3"
   solutionTypeString="primal"
   solutionStatusValue="101"
   solutionStatusString="integer optimal solution"
   solutionMethodString="mip"
   primalFeasible="1"
   dualFeasible="1"
   MIPNodes="0"
   MIPIterations="0"
   writeLevel="3"/>
 <quality
   epInt="1.0000000000000001e-05"
   epRHS="9.9999999999999995e-07"
   maxIntInfeas="0"
   maxPrimalInfeas="0"
   maxX="1"
   maxSlack="1"/>
 <variables>
  <variable name="Y(1,1)" index="0" value="1"/>
  <variable name="Y(2,3)" index="28" value="1"/>
  <variable name="Y(3,4)" index="55" value="1"/>
  <variable name="Y(4,5)" index="82" value="1"/>
  <variable name="Y(5,6)" index="109" value="1"/>
  <variable name="Y(6,7)" index="136" value="1"/>
  <variable name="Y(7,8)" index="163" value="1"/>
  <variable name="Y(8,9)" index="190" value="1"/>
  <variable name="Y(9,10)" index="217" value="1"/>
  <variable name="Y(10,11)" index="244" value="1"/>
  <variable name="Y(11,12)" index="271" value="1"/>
  <variable name="Y(12,13)" index="298" value="1"/>
  <variable name="Y(14,2)" index="339" value="1"/>
  <variable name="X(1,14,1)" index="3250" value="1"/>
  <variable name="X(2,3,2)" index="3376" value="1"/>
  <variable name="X(2,5,1)" index="3500" value="1"/>
  <variable name="X(2,13,12)" index="3636" value="1"/>
  <variable name="X(2,15,14)" index="3763" value="1"/>
  <variable name="X(3,2,13)" index="3887" value="1"/>
  <variable name="X(3,4,15)" index="4014" value="1"/>
  <variable name="X(3,16,2)" index="4126" value="1"/>
  <variable name="X(4,3,26)" index="4275" value="1"/>
  <variable name="X(4,5,25)" index="4399" value="1"/>
  <variable name="X(4,17,3)" index="4502" value="1"/>
  <variable name="X(5,2,37)" index="4661" value="1"/>
  <variable name="X(5,4,3)" index="4752" value="1"/>
  <variable name="X(5,7,5)" index="4879" value="1"/>
  <variable name="X(5,8,1)" index="5000" value="1"/>
  <variable name="X(5,12,9)" index="5133" value="1"/>
  <variable name="X(5,13,36)" index="5285" value="1"/>
  <variable name="X(5,18,4)" index="5378" value="1"/>
  <variable name="X(6,7,47)" index="5546" value="1"/>
  <variable name="X(6,8,51)" index="5675" value="1"/>
  <variable name="X(6,19,5)" index="5754" value="1"/>
  <variable name="X(7,5,47)" index="5921" value="1"/>
  <variable name="X(7,6,5)" index="6004" value="1"/>
  <variable name="X(7,8,55)" index="6179" value="1"/>
  <variable name="X(7,20,6)" index="6255" value="1"/>
  <variable name="X(8,5,92)" index="6466" value="1"/>
  <variable name="X(8,6,72)" index="6571" value="1"/>
  <variable name="X(8,7,73)" index="6697" value="1"/>
  <variable name="X(8,11,1)" index="6750" value="1"/>
  <variable name="X(8,21,7)" index="6881" value="1"/>
  <variable name="X(9,10,68)" index="7067" value="1"/>
  <variable name="X(9,11,67)" index="7191" value="1"/>
  <variable name="X(9,22,8)" index="7257" value="1"/>
  <variable name="X(10,9,79)" index="7453" value="1"/>
  <variable name="X(10,12,68)" index="7567" value="1"/>
  <variable name="X(10,23,9)" index="7633" value="1"/>
  <variable name="X(11,1,1)" index="7750" value="1"/>
  <variable name="X(11,8,72)" index="7946" value="1"/>
  <variable name="X(11,9,8)" index="8007" value="1"/>
  <variable name="X(11,12,101)" index="8225" value="1"/>
  <variable name="X(11,24,10)" index="8259" value="1"/>
  <variable name="X(12,5,68)" index="8442" value="1"/>
  <variable name="X(12,10,9)" index="8508" value="1"/>
  <variable name="X(12,11,103)" index="8727" value="1"/>
  <variable name="X(12,25,11)" index="8760" value="1"/>
  <variable name="X(13,2,115)" index="8989" value="1"/>
  <variable name="X(13,5,117)" index="9116" value="1"/>
  <variable name="X(13,26,12)" index="9136" value="1"/>
 </variables>
</CPLEXSolution>
